62 50 95 23 15 61 2 52 12 73 28 37 57 91 38 19 72 14 88 9 69 77 20 35 48 67 59 85 24 80 5 11 98 58 44 7 99 8 26 84 43 17 79 31 53 33 96 40 34 64 21 92 18 55 70 32 36 6 30 46 94 63 45 97 60 81 1 68 75 78 10 56 41 42 65 86 66 74 16 90 54 22 25 89 49 82 76 27 0 93 51 29 4 71 39 83 47 87 3 13